&control
    calculation = 'scf',
    prefix = 'silicon',
    outdir = './tmp/',
    pseudo_dir = './',
    verbosity = 'high',
/

&system
    ibrav = 2,
    celldm(1) = 10.26,       ! Lattice constant in Bohr
    nat = 2,
    ntyp = 1,
    ecutwfc = 12.0,
    ecutrho = 48.0,
/

&electrons
    conv_thr = 1.0d-8,
    mixing_beta = 0.7,
/

ATOMIC_SPECIES
 Si  28.0855  Si.pz-vbc.UPF

ATOMIC_POSITIONS (angstrom)
 Si  0.000000  0.000000  0.000000
 Si  2.566000  2.566000  2.566000

K_POINTS automatic
 6 6 6 0 0 0
