&CONTROL
  calculation = 'scf',
  prefix = 'O',
  outdir = './tmp',
  pseudo_dir = './',    ! The path where your pseudopotential files are located
  tstress = .true.,
  tprnfor = .true.,
  verbosity = 'high',
  wf_collect = .true.,
/
&SYSTEM
  ibrav = 2,                 ! Type of lattice (for example, body-centered cubic)
  celldm(1) = 10.26,         ! Lattice parameter (in atomic units, usually Bohr)
  nat = 1,                   ! Number of atoms
  ntyp = 1,                  ! Number of different atom types
  ecutwfc = 50.0,            ! Plane-wave cutoff energy (in eV)
  ecutrho = 600.0,           ! Charge density cutoff (in eV)
  occupations = 'smearing',
  smearing = 'gaussian',
  degauss = 0.02,
/
&ELECTRONS
  conv_thr = 1.0d-8,         ! Convergence threshold for the self-consistent field
  mixing_beta = 0.7,         ! Mixing parameter for self-consistency
  electron_maxstep = 100,
/
ATOMIC_SPECIES
  O  15.999  O.pz-rrkjus.UPF   ! Oxygen atom with the pseudopotential
ATOMIC_POSITIONS (angstrom)
  O  0.0 0.0 0.0   ! Position of the oxygen atom at the origin
K_POINTS (automatic)
  1 1 1 0 0 0       ! Monkhorst-Pack grid, adjust as necessary
